InboundTrucks  = 12;
OutboundTrucks = 8;
InboundDoors   = 4;
OutboundDoors  = 4;
ReleaseTime    = [81,14,3,94,35,31,28,17,94,13,86,94];
UnloadTime     = [44,15,37,12,11,15,23,24,42,11,45,22];
LoadTime       = [27,25,27,22,18,12,19,23];
TransferTime   = [| 27,10,0,37,31,27,0,23 | 31,16,15,34,16,32,32,48 | 26,0,0,44,17,34,15,45 | 0,50,0,33,0,0,14,12 | 24,28,15,24,16,34,27,0 | 50,0,0,33,0,23,0,14 | 48,50,0,0,0,0,39,34 | 0,0,45,24,30,13,0,0 | 30,0,27,14,23,46,30,23 | 41,35,39,19,26,0,25,45 | 44,26,47,37,47,0,33,24 | 18,42,41,15,13,17,19,50 |];
